NAME : CHRVRP
COMMENT : master instance for CHRVRP
EDGE_WEIGHT_TYPE : EUC_2D
NODE_COORD_SECTION
V100 40.769e+03 71.077e+03
V101 5.537e+03 96.579e+03
V102 78.853e+03 0.422e+03
S0 50.837e+03 68.389e+03
S1 66.390e+03 40.535e+03
D10 22.199e+03 8.074e+03
D11 87.073e+03 73.844e+03
D12 20.672e+03 44.131e+03
D13 91.861e+03 15.831e+03
D14 48.841e+03 87.994e+03
D15 61.174e+03 27.409e+03
D16 76.591e+03 41.424e+03
D17 51.842e+03 29.608e+03
D18 29.680e+03 62.879e+03
D19 18.772e+03 57.984e+03
EOF
